lbl,CUST NO.,READY TIME,XCOORD.,YCOORD.,DEMAND,DUE DATE,SERVICE TIME
11,65,0,135,3,20,1168,90
11,86,0,135,0,10,1166,90
11,94,0,137,3,20,1167,90
11,115,0,136,0,30,1165,90
11,171,0,135,6,30,1170,90
11,189,0,131,11,10,1177,90
11,32,84,129,9,10,147,90
11,51,611,137,6,10,678,90
11,174,723,139,10,30,756,90
11,136,797,133,12,10,874,90
